NAME : RAT99B.1464.tour
COMMENT : Cost = 0_1464
COMMENT : Found by LKH [Keld Helsgaun] Sun Sep 17 16:52:41 2017
TYPE : TOUR
DIMENSION : 99
TOUR_SECTION
1
10
12
13
14
6
8
16
15
25
27
36
43
45
54
53
52
51
60
59
58
57
56
65
66
67
68
76
84
85
86
95
97
87
88
79
81
71
70
69
78
77
75
74
64
73
82
83
91
92
93
94
96
98
99
90
89
80
72
63
62
61
49
50
40
39
48
47
55
46
38
41
32
31
30
29
37
28
19
20
21
22
23
24
33
42
34
44
35
26
17
18
9
7
5
4
3
11
2
-1
EOF
